(set-info :source |printed by MathSAT|)
(declare-fun A_8 () Int)
(declare-fun .x.60 () Int)
(declare-fun .y.16 () Int)
(declare-fun .y.29 () Int)
(declare-fun .y.17 () Int)
(declare-fun .y.30 () Int)
(declare-fun B_8 () (Array Int Int))
(declare-fun .x.61 () (Array Int Int))
(declare-fun C_7 () Int)
(declare-fun .x.62 () Int)
(declare-fun D_7 () (Array Int Int))
(declare-fun .x.63 () (Array Int Int))
(declare-fun E_7 () Int)
(declare-fun M_7 () Int)
(declare-fun F_7 () Int)
(declare-fun .x.64 () Int)
(declare-fun .y.18 () Int)
(declare-fun .y.31 () Int)
(declare-fun .y.19 () Int)
(declare-fun .y.32 () Int)
(declare-fun G_7 () (Array Int Int))
(declare-fun .y.33 () (Array Int Int))
(declare-fun .y.20 () (Array Int Int))
(declare-fun .y.34 () (Array Int Int))
(declare-fun .y.21 () (Array Int Int))
(declare-fun .y.35 () (Array Int Int))
(declare-fun H_7 () Int)
(declare-fun .y.36 () Int)
(declare-fun .y.22 () Int)
(declare-fun .y.37 () Int)
(declare-fun .y.23 () Int)
(declare-fun .y.38 () Int)
(declare-fun .y.24 () (Array Int Int))
(declare-fun .y.39 () (Array Int Int))
(declare-fun .y.25 () (Array Int Int))
(declare-fun .y.40 () (Array Int Int))
(declare-fun .loc.26 () Bool)
(declare-fun .loc.41 () Bool)
(declare-fun .loc.27 () Bool)
(declare-fun .loc.42 () Bool)
(declare-fun .loc.28 () Bool)
(declare-fun .loc.43 () Bool)
(declare-fun L_8 () Int)
(declare-fun J_8 () Int)
(declare-fun U_0 () Int)
(declare-fun J_9 () Int)
(declare-fun L_9 () Int)
(define-fun .def_8 () Int (! A_8 :next |.x.60|))
(define-fun .def_10 () Int (! .y.16 :next |.y.29|))
(define-fun .def_12 () Int (! .y.17 :next |.y.30|))
(define-fun .def_14 () (Array Int Int) (! B_8 :next |.x.61|))
(define-fun .def_16 () Int (! C_7 :next |.x.62|))
(define-fun .def_18 () (Array Int Int) (! D_7 :next |.x.63|))
(define-fun .def_20 () Int (! E_7 :next |M_7|))
(define-fun .def_22 () Int (! F_7 :next |.x.64|))
(define-fun .def_24 () Int (! .y.18 :next |.y.31|))
(define-fun .def_26 () Int (! .y.19 :next |.y.32|))
(define-fun .def_28 () (Array Int Int) (! G_7 :next |.y.33|))
(define-fun .def_30 () (Array Int Int) (! .y.20 :next |.y.34|))
(define-fun .def_32 () (Array Int Int) (! .y.21 :next |.y.35|))
(define-fun .def_34 () Int (! H_7 :next |.y.36|))
(define-fun .def_36 () Int (! .y.22 :next |.y.37|))
(define-fun .def_38 () Int (! .y.23 :next |.y.38|))
(define-fun .def_40 () (Array Int Int) (! .y.24 :next |.y.39|))
(define-fun .def_42 () (Array Int Int) (! .y.25 :next |.y.40|))
(define-fun .def_44 () Bool (! .loc.26 :next |.loc.41|))
(define-fun .def_46 () Bool (! .loc.27 :next |.loc.42|))
(define-fun .def_48 () Bool (! .loc.28 :next |.loc.43|))
(define-fun .def_69 () Int (! L_8 :next |.xtv.1|))
(define-fun .def_70 () Int (! J_8 :next |.xtv.2|))
(define-fun .def_74 () Int (! U_0 :next |.xtv.3|))
(define-fun .def_350 () Int (! J_9 :next |.xpv.1|))
(define-fun .def_354 () Int (! L_9 :next |.xpv.2|))
(define-fun .def_128 () Bool (not .def_44))
(define-fun .def_52 () Bool (not .def_46))
(define-fun .def_348 () Bool (and .def_52 .def_128))
(define-fun .def_65 () Bool (not .def_48))
(define-fun .def_349 () Bool (! (and .def_65 .def_348) :init true))
(define-fun .def_344 () Bool (= .def_14 .x.61))
(define-fun .def_275 () Bool (<= .def_34 .def_20))
(define-fun .def_255 () Bool (= .x.62 .def_22))
(define-fun .def_329 () Bool (and .def_255 .def_275))
(define-fun .def_254 () Bool (= .x.63 .def_28))
(define-fun .def_330 () Bool (and .def_254 .def_329))
(define-fun .def_257 () Bool (= .x.64 .def_34))
(define-fun .def_331 () Bool (and .def_257 .def_330))
(define-fun .def_206 () Bool (= M_7 0))
(define-fun .def_332 () Bool (and .def_206 .def_331))
(define-fun .def_333 () Bool (and .def_128 .def_332))
(define-fun .def_186 () Bool (<= .def_69 0))
(define-fun .def_187 () Bool (not .def_186))
(define-fun .def_58 () Bool (<= .def_16 0))
(define-fun .def_324 () Bool (or .def_58 .def_187))
(define-fun .def_310 () Bool (<= .def_8 0))
(define-fun .def_110 () Bool (<= .def_70 0))
(define-fun .def_111 () Bool (not .def_110))
(define-fun .def_322 () Bool (or .def_111 .def_310))
(define-fun .def_181 () Int (* (- 1) .def_69))
(define-fun .def_317 () Int (+ .def_20 .def_181))
(define-fun .def_318 () Int (+ .def_16 .def_317))
(define-fun .def_319 () Bool (= .def_318 0))
(define-fun .def_90 () Int (* (- 1) .def_70))
(define-fun .def_177 () Int (+ .def_20 .def_90))
(define-fun .def_314 () Int (+ .def_8 .def_177))
(define-fun .def_315 () Bool (= .def_314 0))
(define-fun .def_311 () Bool (not .def_310))
(define-fun .def_307 () Bool (<= .def_22 .def_20))
(define-fun .def_308 () Bool (not .def_307))
(define-fun .def_304 () Int (select .def_18 .def_69))
(define-fun .def_303 () Int (select .def_14 .def_70))
(define-fun .def_305 () Bool (= .def_303 .def_304))
(define-fun .def_306 () Bool (and .def_44 .def_305))
(define-fun .def_309 () Bool (and .def_306 .def_308))
(define-fun .def_312 () Bool (and .def_309 .def_311))
(define-fun .def_59 () Bool (not .def_58))
(define-fun .def_313 () Bool (and .def_59 .def_312))
(define-fun .def_316 () Bool (and .def_313 .def_315))
(define-fun .def_320 () Bool (and .def_316 .def_319))
(define-fun .def_159 () Int (* (- 1) M_7))
(define-fun .def_160 () Int (+ .def_20 .def_159))
(define-fun .def_161 () Bool (= .def_160 (- 1)))
(define-fun .def_321 () Bool (and .def_161 .def_320))
(define-fun .def_323 () Bool (and .def_321 .def_322))
(define-fun .def_325 () Bool (and .def_323 .def_324))
(define-fun .def_61 () Bool (= .def_16 .x.62))
(define-fun .def_326 () Bool (and .def_61 .def_325))
(define-fun .def_164 () Bool (= .def_18 .x.63))
(define-fun .def_327 () Bool (and .def_164 .def_326))
(define-fun .def_63 () Bool (= .def_22 .x.64))
(define-fun .def_328 () Bool (and .def_63 .def_327))
(define-fun .def_334 () Bool (or .def_328 .def_333))
(define-fun .def_301 () Bool (and .def_48 .def_52))
(define-fun .def_302 () Bool (and .loc.41 .def_301))
(define-fun .def_335 () Bool (and .def_302 .def_334))
(define-fun .def_297 () Bool (= .y.33 .def_40))
(define-fun .def_256 () Bool (and .def_254 .def_255))
(define-fun .def_258 () Bool (and .def_256 .def_257))
(define-fun .def_259 () Bool (and .def_206 .def_258))
(define-fun .def_293 () Bool (and .def_44 .def_259))
(define-fun .def_294 () Bool (and .def_46 .def_293))
(define-fun .def_167 () Bool (not .loc.41))
(define-fun .def_295 () Bool (and .def_167 .def_294))
(define-fun .def_296 () Bool (and .def_65 .def_295))
(define-fun .def_298 () Bool (and .def_296 .def_297))
(define-fun .def_250 () Bool (<= .def_36 .def_20))
(define-fun .def_299 () Bool (and .def_250 .def_298))
(define-fun .def_265 () Bool (= .y.36 .def_36))
(define-fun .def_300 () Bool (and .def_265 .def_299))
(define-fun .def_336 () Bool (or .def_300 .def_335))
(define-fun .def_276 () Bool (not .def_275))
(define-fun .def_277 () Bool (and .def_48 .def_276))
(define-fun .def_278 () Bool (and .def_128 .def_277))
(define-fun .def_279 () Bool (and .def_52 .def_278))
(define-fun .def_280 () Bool (and .def_59 .def_279))
(define-fun .def_281 () Bool (and .def_161 .def_280))
(define-fun .def_282 () Bool (and .def_61 .def_281))
(define-fun .def_283 () Bool (and .def_164 .def_282))
(define-fun .def_284 () Bool (and .def_63 .def_283))
(define-fun .def_285 () Bool (and .def_167 .def_284))
(define-fun .def_170 () Int (select .def_18 .def_70))
(define-fun .def_171 () (Array Int Int) (store .def_28 .def_69 .def_170))
(define-fun .def_172 () Bool (= .y.33 .def_171))
(define-fun .def_286 () Bool (and .def_172 .def_285))
(define-fun .def_174 () Bool (<= .def_22 0))
(define-fun .def_175 () Bool (not .def_174))
(define-fun .def_287 () Bool (and .def_175 .def_286))
(define-fun .def_178 () Int (+ .def_16 .def_177))
(define-fun .def_179 () Bool (= .def_178 0))
(define-fun .def_288 () Bool (and .def_179 .def_287))
(define-fun .def_182 () Int (+ .def_22 .def_181))
(define-fun .def_183 () Int (+ .def_20 .def_182))
(define-fun .def_184 () Bool (= .def_183 0))
(define-fun .def_289 () Bool (and .def_184 .def_288))
(define-fun .def_188 () Bool (or .def_174 .def_187))
(define-fun .def_290 () Bool (and .def_188 .def_289))
(define-fun .def_190 () Bool (or .def_58 .def_111))
(define-fun .def_291 () Bool (and .def_190 .def_290))
(define-fun .def_192 () Bool (= .def_34 .y.36))
(define-fun .def_292 () Bool (and .def_192 .def_291))
(define-fun .def_337 () Bool (or .def_292 .def_336))
(define-fun .def_55 () Bool (not .loc.42))
(define-fun .def_274 () Bool (and .loc.43 .def_55))
(define-fun .def_338 () Bool (and .def_274 .def_337))
(define-fun .def_271 () Bool (= .y.37 .def_38))
(define-fun .def_268 () Bool (= .y.33 .def_42))
(define-fun .def_260 () Bool (and .def_46 .def_259))
(define-fun .def_261 () Bool (and .def_128 .def_260))
(define-fun .def_262 () Bool (and .loc.41 .def_261))
(define-fun .def_263 () Bool (and .loc.42 .def_262))
(define-fun .def_264 () Bool (and .def_65 .def_263))
(define-fun .def_266 () Bool (and .def_264 .def_265))
(define-fun .def_67 () Bool (not .loc.43))
(define-fun .def_267 () Bool (and .def_67 .def_266))
(define-fun .def_269 () Bool (and .def_267 .def_268))
(define-fun .def_199 () Bool (<= .def_38 .def_20))
(define-fun .def_270 () Bool (and .def_199 .def_269))
(define-fun .def_272 () Bool (and .def_270 .def_271))
(define-fun .def_195 () Bool (= .def_40 .y.39))
(define-fun .def_273 () Bool (and .def_195 .def_272))
(define-fun .def_339 () Bool (or .def_273 .def_338))
(define-fun .def_251 () Bool (not .def_250))
(define-fun .def_232 () Bool (and .def_44 .def_46))
(define-fun .def_233 () Bool (and .loc.41 .def_232))
(define-fun .def_234 () Bool (and .loc.42 .def_233))
(define-fun .def_235 () Bool (and .def_59 .def_234))
(define-fun .def_236 () Bool (and .def_161 .def_235))
(define-fun .def_237 () Bool (and .def_61 .def_236))
(define-fun .def_238 () Bool (and .def_164 .def_237))
(define-fun .def_239 () Bool (and .def_63 .def_238))
(define-fun .def_240 () Bool (and .def_65 .def_239))
(define-fun .def_241 () Bool (and .def_172 .def_240))
(define-fun .def_242 () Bool (and .def_175 .def_241))
(define-fun .def_243 () Bool (and .def_179 .def_242))
(define-fun .def_244 () Bool (and .def_184 .def_243))
(define-fun .def_245 () Bool (and .def_188 .def_244))
(define-fun .def_246 () Bool (and .def_190 .def_245))
(define-fun .def_247 () Bool (and .def_192 .def_246))
(define-fun .def_248 () Bool (and .def_67 .def_247))
(define-fun .def_249 () Bool (and .def_195 .def_248))
(define-fun .def_252 () Bool (and .def_249 .def_251))
(define-fun .def_197 () Bool (= .def_36 .y.37))
(define-fun .def_253 () Bool (and .def_197 .def_252))
(define-fun .def_340 () Bool (or .def_253 .def_339))
(define-fun .def_50 () Bool (= .def_8 .x.60))
(define-fun .def_341 () Bool (and .def_50 .def_340))
(define-fun .def_230 () Bool (= .def_30 .y.40))
(define-fun .def_228 () Bool (= .def_28 .y.39))
(define-fun .def_226 () Bool (= .def_26 .y.38))
(define-fun .def_224 () Bool (= .def_24 .y.37))
(define-fun .def_222 () Bool (= .def_22 .y.36))
(define-fun .def_220 () Bool (= .def_20 .x.64))
(define-fun .def_218 () Bool (= .x.60 .def_10))
(define-fun .def_215 () Bool (= .y.33 .def_32))
(define-fun .def_207 () Bool (and .def_44 .def_206))
(define-fun .def_208 () Bool (and .def_52 .def_207))
(define-fun .def_209 () Bool (and .loc.42 .def_208))
(define-fun .def_210 () Bool (and .def_61 .def_209))
(define-fun .def_211 () Bool (and .def_164 .def_210))
(define-fun .def_212 () Bool (and .def_167 .def_211))
(define-fun .def_213 () Bool (and .def_65 .def_212))
(define-fun .def_214 () Bool (and .def_67 .def_213))
(define-fun .def_216 () Bool (and .def_214 .def_215))
(define-fun .def_103 () Bool (<= .def_26 .def_12))
(define-fun .def_217 () Bool (and .def_103 .def_216))
(define-fun .def_219 () Bool (and .def_217 .def_218))
(define-fun .def_221 () Bool (and .def_219 .def_220))
(define-fun .def_223 () Bool (and .def_221 .def_222))
(define-fun .def_225 () Bool (and .def_223 .def_224))
(define-fun .def_227 () Bool (and .def_225 .def_226))
(define-fun .def_229 () Bool (and .def_227 .def_228))
(define-fun .def_231 () Bool (and .def_229 .def_230))
(define-fun .def_342 () Bool (or .def_231 .def_341))
(define-fun .def_204 () Bool (= .def_42 .y.40))
(define-fun .def_202 () Bool (= .def_38 .y.38))
(define-fun .def_200 () Bool (not .def_199))
(define-fun .def_155 () Bool (and .def_46 .def_50))
(define-fun .def_156 () Bool (and .def_128 .def_155))
(define-fun .def_157 () Bool (and .loc.42 .def_156))
(define-fun .def_158 () Bool (and .def_59 .def_157))
(define-fun .def_162 () Bool (and .def_158 .def_161))
(define-fun .def_163 () Bool (and .def_61 .def_162))
(define-fun .def_165 () Bool (and .def_163 .def_164))
(define-fun .def_166 () Bool (and .def_63 .def_165))
(define-fun .def_168 () Bool (and .def_166 .def_167))
(define-fun .def_169 () Bool (and .def_65 .def_168))
(define-fun .def_173 () Bool (and .def_169 .def_172))
(define-fun .def_176 () Bool (and .def_173 .def_175))
(define-fun .def_180 () Bool (and .def_176 .def_179))
(define-fun .def_185 () Bool (and .def_180 .def_184))
(define-fun .def_189 () Bool (and .def_185 .def_188))
(define-fun .def_191 () Bool (and .def_189 .def_190))
(define-fun .def_193 () Bool (and .def_191 .def_192))
(define-fun .def_194 () Bool (and .def_67 .def_193))
(define-fun .def_196 () Bool (and .def_194 .def_195))
(define-fun .def_198 () Bool (and .def_196 .def_197))
(define-fun .def_201 () Bool (and .def_198 .def_200))
(define-fun .def_203 () Bool (and .def_201 .def_202))
(define-fun .def_205 () Bool (and .def_203 .def_204))
(define-fun .def_343 () Bool (or .def_205 .def_342))
(define-fun .def_345 () Bool (and .def_343 .def_344))
(define-fun .def_152 () Bool (<= .y.31 0))
(define-fun .def_153 () Bool (not .def_152))
(define-fun .def_149 () Bool (<= .x.64 0))
(define-fun .def_150 () Bool (not .def_149))
(define-fun .def_146 () Bool (<= M_7 0))
(define-fun .def_147 () Bool (not .def_146))
(define-fun .def_143 () Bool (<= .x.62 0))
(define-fun .def_144 () Bool (not .def_143))
(define-fun .def_140 () Bool (<= .y.29 0))
(define-fun .def_141 () Bool (not .def_140))
(define-fun .def_137 () Bool (<= .y.32 0))
(define-fun .def_138 () Bool (not .def_137))
(define-fun .def_135 () Bool (= .y.30 0))
(define-fun .def_129 () Bool (and .def_50 .def_128))
(define-fun .def_130 () Bool (and .def_52 .def_129))
(define-fun .def_131 () Bool (and .loc.41 .def_130))
(define-fun .def_132 () Bool (and .def_55 .def_131))
(define-fun .def_133 () Bool (and .def_65 .def_132))
(define-fun .def_134 () Bool (and .def_67 .def_133))
(define-fun .def_136 () Bool (and .def_134 .def_135))
(define-fun .def_139 () Bool (and .def_136 .def_138))
(define-fun .def_142 () Bool (and .def_139 .def_141))
(define-fun .def_145 () Bool (and .def_142 .def_144))
(define-fun .def_148 () Bool (and .def_145 .def_147))
(define-fun .def_151 () Bool (and .def_148 .def_150))
(define-fun .def_154 () Bool (and .def_151 .def_153))
(define-fun .def_346 () Bool (or .def_154 .def_345))
(define-fun .def_126 () Bool (= .def_32 .y.35))
(define-fun .def_124 () Bool (= .def_30 .y.34))
(define-fun .def_122 () Bool (= .def_28 .y.33))
(define-fun .def_120 () Bool (= .def_26 .y.32))
(define-fun .def_118 () Bool (= .def_24 .y.31))
(define-fun .def_116 () Bool (= .def_20 M_7))
(define-fun .def_114 () Bool (= .def_10 .y.29))
(define-fun .def_83 () Bool (<= .def_10 0))
(define-fun .def_112 () Bool (or .def_83 .def_111))
(define-fun .def_106 () Bool (<= .def_74 0))
(define-fun .def_107 () Bool (not .def_106))
(define-fun .def_108 () Bool (or .def_58 .def_107))
(define-fun .def_104 () Bool (not .def_103))
(define-fun .def_98 () Int (* (- 1) .def_74))
(define-fun .def_99 () Int (+ .def_16 .def_98))
(define-fun .def_100 () Int (+ .def_12 .def_99))
(define-fun .def_101 () Bool (= .def_100 0))
(define-fun .def_91 () Int (+ .def_12 .def_90))
(define-fun .def_92 () Int (+ .def_10 .def_91))
(define-fun .def_93 () Bool (= .def_92 0))
(define-fun .def_84 () Bool (not .def_83))
(define-fun .def_79 () Int (* (- 1) .y.30))
(define-fun .def_80 () Int (+ .def_12 .def_79))
(define-fun .def_81 () Bool (= .def_80 (- 1)))
(define-fun .def_75 () (Array Int Int) (store .def_18 .def_74 .def_69))
(define-fun .def_76 () Bool (= .x.63 .def_75))
(define-fun .def_71 () (Array Int Int) (store .def_14 .def_70 .def_69))
(define-fun .def_72 () Bool (= .x.61 .def_71))
(define-fun .def_51 () Bool (and .def_44 .def_50))
(define-fun .def_53 () Bool (and .def_51 .def_52))
(define-fun .def_54 () Bool (and .loc.41 .def_53))
(define-fun .def_56 () Bool (and .def_54 .def_55))
(define-fun .def_60 () Bool (and .def_56 .def_59))
(define-fun .def_62 () Bool (and .def_60 .def_61))
(define-fun .def_64 () Bool (and .def_62 .def_63))
(define-fun .def_66 () Bool (and .def_64 .def_65))
(define-fun .def_68 () Bool (and .def_66 .def_67))
(define-fun .def_73 () Bool (and .def_68 .def_72))
(define-fun .def_77 () Bool (and .def_73 .def_76))
(define-fun .def_82 () Bool (and .def_77 .def_81))
(define-fun .def_85 () Bool (and .def_82 .def_84))
(define-fun .def_94 () Bool (and .def_85 .def_93))
(define-fun .def_102 () Bool (and .def_94 .def_101))
(define-fun .def_105 () Bool (and .def_102 .def_104))
(define-fun .def_109 () Bool (and .def_105 .def_108))
(define-fun .def_113 () Bool (and .def_109 .def_112))
(define-fun .def_115 () Bool (and .def_113 .def_114))
(define-fun .def_117 () Bool (and .def_115 .def_116))
(define-fun .def_119 () Bool (and .def_117 .def_118))
(define-fun .def_121 () Bool (and .def_119 .def_120))
(define-fun .def_123 () Bool (and .def_121 .def_122))
(define-fun .def_125 () Bool (and .def_123 .def_124))
(define-fun .def_127 () Bool (and .def_125 .def_126))
(define-fun .def_347 () Bool (! (or .def_127 .def_346) :trans true))
(define-fun .def_377 () Bool (and .def_44 .def_52))
(define-fun .def_378 () Bool (and .def_48 .def_377))
(define-fun .def_371 () Int (select .def_14 .def_350))
(define-fun .def_370 () Int (select .def_18 .def_354))
(define-fun .def_372 () Bool (= .def_370 .def_371))
(define-fun .def_373 () Bool (not .def_372))
(define-fun .def_366 () Bool (and .def_308 .def_311))
(define-fun .def_367 () Bool (and .def_59 .def_366))
(define-fun .def_362 () Int (* (- 1) .def_350))
(define-fun .def_363 () Int (+ .def_20 .def_362))
(define-fun .def_364 () Int (+ .def_8 .def_363))
(define-fun .def_365 () Bool (= .def_364 0))
(define-fun .def_368 () Bool (and .def_365 .def_367))
(define-fun .def_358 () Int (* (- 1) .def_354))
(define-fun .def_359 () Int (+ .def_20 .def_358))
(define-fun .def_360 () Int (+ .def_16 .def_359))
(define-fun .def_361 () Bool (= .def_360 0))
(define-fun .def_369 () Bool (and .def_361 .def_368))
(define-fun .def_374 () Bool (and .def_369 .def_373))
(define-fun .def_355 () Bool (<= .def_354 0))
(define-fun .def_356 () Bool (not .def_355))
(define-fun .def_357 () Bool (or .def_58 .def_356))
(define-fun .def_375 () Bool (and .def_357 .def_374))
(define-fun .def_351 () Bool (<= .def_350 0))
(define-fun .def_352 () Bool (not .def_351))
(define-fun .def_353 () Bool (or .def_310 .def_352))
(define-fun .def_376 () Bool (and .def_353 .def_375))
(define-fun .def_379 () Bool (and .def_376 .def_378))
(define-fun .def_382 () Bool (! (not .def_379) :invar-property 0))
(assert true)
